p tw 149 169
1 2
2 62
3 14
4 5
5 6
6 10
7 8
8 9
9 10
10 11
11 12
12 13
12 21
13 15
14 25
15 16
16 17
17 18
18 19
18 95
19 20
20 21
21 22
22 23
23 24
24 26
24 123
25 36
26 27
27 28
28 29
29 30
30 31
31 32
32 33
33 34
34 35
35 37
36 47
36 57
37 38
38 39
38 95
39 40
40 41
41 42
42 43
43 44
44 45
45 46
46 48
47 55
48 49
49 50
50 51
51 52
51 95
52 53
53 54
54 55
55 56
57 58
58 59
59 60
60 61
61 63
62 73
63 64
64 65
65 66
65 76
66 67
67 68
68 69
69 70
70 71
71 72
72 74
73 84
74 75
75 109
76 77
77 78
78 79
79 80
80 81
81 82
82 83
83 85
84 95
85 86
86 87
87 88
88 89
88 90
89 55
90 91
91 92
92 93
93 94
94 96
95 106
96 97
97 98
97 79
98 99
99 100
100 101
101 102
102 103
103 104
104 105
105 107
106 117
107 108
108 95
109 110
110 111
111 112
112 113
112 95
113 114
114 115
114 95
115 116
116 118
116 95
117 128
118 119
119 120
119 95
120 121
121 122
122 123
123 124
124 125
125 126
125 10
126 127
127 129
127 10
128 139
129 130
129 134
129 138
129 142
129 145
129 149
129 7
130 131
131 132
132 133
133 10
134 135
135 136
136 137
137 10
138 140
139 3
140 141
141 10
142 143
143 144
144 10
145 146
146 147
147 148
148 10
149 4
